c FILE: random-n100-d20-a-n100-d20-1.col

p edge 100 990
e 1 7
e 1 9
e 1 10
e 1 21
e 1 22
e 1 25
e 1 26
e 1 27
e 1 36
e 1 37
e 1 40
e 1 50
e 1 61
e 1 63
e 1 64
e 1 69
e 1 70
e 1 72
e 1 75
e 1 77
e 1 78
e 1 85
e 1 89
e 1 94
e 1 96
e 1 99
e 2 6
e 2 15
e 2 17
e 2 19
e 2 23
e 2 35
e 2 36
e 2 41
e 2 44
e 2 45
e 2 57
e 2 59
e 2 63
e 2 69
e 2 72
e 2 74
e 2 75
e 2 79
e 2 86
e 2 90
e 2 95
e 2 97
e 2 98
e 2 99
e 2 100
e 3 11
e 3 13
e 3 20
e 3 21
e 3 48
e 3 50
e 3 52
e 3 58
e 3 63
e 3 72
e 3 86
e 3 90
e 3 98
e 3 100
e 4 11
e 4 19
e 4 22
e 4 39
e 4 40
e 4 43
e 4 49
e 4 55
e 4 59
e 4 60
e 4 61
e 4 67
e 4 74
e 4 75
e 4 83
e 4 87
e 4 88
e 4 90
e 4 91
e 4 97
e 4 98
e 4 99
e 5 13
e 5 14
e 5 17
e 5 22
e 5 48
e 5 50
e 5 51
e 5 64
e 5 69
e 5 73
e 5 74
e 5 79
e 5 89
e 5 91
e 5 93
e 6 8
e 6 11
e 6 14
e 6 28
e 6 33
e 6 39
e 6 43
e 6 45
e 6 48
e 6 57
e 6 58
e 6 61
e 6 66
e 6 73
e 6 74
e 6 76
e 6 97
e 7 14
e 7 20
e 7 21
e 7 26
e 7 32
e 7 49
e 7 51
e 7 56
e 7 58
e 7 59
e 7 60
e 7 70
e 7 75
e 7 81
e 7 87
e 7 88
e 7 89
e 7 90
e 7 94
e 7 97
e 7 99
e 7 100
e 8 9
e 8 12
e 8 15
e 8 19
e 8 25
e 8 29
e 8 39
e 8 41
e 8 51
e 8 52
e 8 54
e 8 57
e 8 71
e 8 74
e 8 79
e 8 85
e 8 89
e 8 90
e 9 12
e 9 13
e 9 19
e 9 36
e 9 39
e 9 40
e 9 45
e 9 57
e 9 62
e 9 69
e 9 75
e 9 78
e 9 79
e 9 89
e 9 98
e 9 99
e 10 25
e 10 27
e 10 28
e 10 32
e 10 38
e 10 48
e 10 50
e 10 67
e 10 69
e 10 74
e 10 80
e 10 81
e 10 86
e 10 88
e 10 97
e 11 24
e 11 32
e 11 33
e 11 38
e 11 39
e 11 45
e 11 46
e 11 51
e 11 54
e 11 63
e 11 69
e 11 82
e 11 87
e 11 91
e 11 92
e 11 93
e 11 95
e 11 98
e 11 100
e 12 22
e 12 24
e 12 32
e 12 35
e 12 42
e 12 45
e 12 50
e 12 53
e 12 55
e 12 66
e 12 67
e 12 68
e 12 75
e 12 79
e 12 84
e 12 100
e 13 14
e 13 21
e 13 24
e 13 40
e 13 41
e 13 43
e 13 48
e 13 50
e 13 52
e 13 53
e 13 57
e 13 61
e 13 64
e 13 66
e 13 82
e 13 93
e 13 96
e 13 97
e 13 98
e 14 16
e 14 24
e 14 26
e 14 28
e 14 30
e 14 31
e 14 50
e 14 52
e 14 60
e 14 62
e 14 63
e 14 65
e 14 73
e 14 75
e 14 87
e 14 88
e 14 97
e 14 98
e 15 18
e 15 21
e 15 42
e 15 53
e 15 62
e 15 64
e 15 65
e 15 68
e 15 70
e 15 72
e 15 77
e 15 83
e 15 94
e 16 17
e 16 30
e 16 32
e 16 35
e 16 45
e 16 47
e 16 64
e 16 67
e 16 71
e 16 80
e 16 82
e 16 83
e 16 87
e 16 89
e 16 90
e 16 94
e 17 24
e 17 26
e 17 30
e 17 31
e 17 33
e 17 38
e 17 41
e 17 46
e 17 47
e 17 57
e 17 73
e 17 78
e 17 89
e 18 27
e 18 29
e 18 35
e 18 36
e 18 41
e 18 42
e 18 47
e 18 48
e 18 56
e 18 59
e 18 61
e 18 62
e 18 69
e 18 88
e 18 93
e 18 97
e 19 22
e 19 33
e 19 43
e 19 49
e 19 51
e 19 54
e 19 59
e 19 60
e 19 61
e 19 70
e 19 72
e 19 78
e 19 87
e 19 91
e 19 96
e 20 23
e 20 34
e 20 38
e 20 54
e 20 61
e 20 69
e 20 72
e 20 76
e 20 81
e 20 84
e 20 90
e 20 96
e 21 23
e 21 36
e 21 39
e 21 44
e 21 54
e 21 57
e 21 58
e 21 60
e 21 70
e 21 71
e 21 73
e 21 80
e 21 81
e 21 85
e 21 95
e 22 47
e 22 51
e 22 56
e 22 60
e 22 63
e 22 68
e 22 80
e 22 85
e 22 97
e 23 31
e 23 33
e 23 37
e 23 41
e 23 45
e 23 46
e 23 50
e 23 52
e 23 67
e 23 70
e 23 71
e 23 73
e 23 74
e 23 75
e 23 77
e 23 80
e 23 89
e 23 91
e 23 93
e 24 29
e 24 31
e 24 45
e 24 48
e 24 52
e 24 61
e 24 64
e 24 67
e 24 75
e 24 82
e 24 89
e 24 90
e 24 93
e 24 97
e 25 29
e 25 31
e 25 38
e 25 42
e 25 43
e 25 48
e 25 52
e 25 54
e 25 62
e 25 71
e 25 75
e 25 76
e 25 78
e 25 79
e 25 81
e 25 86
e 25 96
e 26 27
e 26 29
e 26 31
e 26 36
e 26 40
e 26 55
e 26 59
e 26 67
e 26 68
e 26 70
e 26 73
e 26 83
e 26 88
e 26 90
e 27 29
e 27 30
e 27 36
e 27 39
e 27 45
e 27 50
e 27 55
e 27 61
e 27 64
e 27 65
e 27 70
e 27 73
e 27 81
e 27 82
e 27 94
e 27 95
e 28 41
e 28 50
e 28 52
e 28 56
e 28 57
e 28 58
e 28 64
e 28 67
e 28 70
e 28 76
e 28 97
e 28 98
e 29 31
e 29 32
e 29 41
e 29 47
e 29 57
e 29 60
e 29 62
e 29 66
e 29 69
e 29 72
e 29 75
e 29 79
e 29 80
e 29 82
e 29 86
e 29 87
e 29 92
e 30 32
e 30 44
e 30 46
e 30 53
e 30 58
e 30 63
e 30 64
e 30 65
e 30 68
e 30 73
e 30 84
e 30 87
e 30 89
e 30 96
e 31 38
e 31 51
e 31 64
e 31 72
e 31 77
e 31 85
e 31 86
e 31 89
e 31 90
e 31 98
e 32 34
e 32 36
e 32 46
e 32 53
e 32 58
e 32 60
e 32 65
e 32 67
e 32 71
e 32 77
e 32 83
e 32 85
e 32 87
e 32 88
e 32 98
e 32 99
e 33 34
e 33 45
e 33 48
e 33 54
e 33 57
e 33 66
e 33 67
e 33 68
e 33 71
e 33 74
e 33 78
e 33 83
e 33 85
e 33 86
e 33 87
e 33 88
e 33 90
e 33 95
e 33 100
e 34 37
e 34 43
e 34 58
e 34 59
e 34 63
e 34 64
e 34 69
e 34 77
e 34 80
e 34 83
e 34 87
e 34 90
e 35 38
e 35 48
e 35 53
e 35 57
e 35 66
e 35 68
e 35 69
e 35 75
e 35 81
e 35 83
e 35 91
e 35 94
e 35 96
e 36 38
e 36 39
e 36 44
e 36 45
e 36 47
e 36 50
e 36 55
e 36 60
e 36 66
e 36 74
e 36 83
e 36 85
e 36 92
e 36 97
e 36 99
e 36 100
e 37 41
e 37 42
e 37 55
e 37 56
e 37 57
e 37 58
e 37 60
e 37 70
e 37 71
e 37 73
e 37 77
e 37 78
e 37 79
e 37 81
e 37 82
e 37 83
e 37 84
e 37 85
e 37 90
e 37 96
e 38 43
e 38 56
e 38 59
e 38 72
e 38 81
e 38 93
e 38 94
e 39 40
e 39 56
e 39 58
e 39 60
e 39 63
e 39 70
e 39 75
e 39 76
e 39 77
e 39 92
e 39 93
e 39 95
e 39 99
e 40 47
e 40 50
e 40 57
e 40 59
e 40 63
e 40 69
e 40 79
e 40 88
e 40 94
e 41 50
e 41 56
e 41 64
e 41 67
e 41 70
e 41 75
e 41 77
e 41 79
e 41 81
e 41 88
e 41 89
e 41 97
e 41 100
e 42 52
e 42 55
e 42 76
e 42 77
e 42 100
e 43 48
e 43 54
e 43 64
e 43 65
e 43 71
e 43 75
e 43 83
e 43 84
e 43 87
e 43 90
e 43 95
e 43 100
e 44 47
e 44 53
e 44 57
e 44 60
e 44 72
e 44 74
e 44 75
e 44 79
e 44 91
e 44 95
e 44 97
e 45 54
e 45 55
e 45 62
e 45 69
e 45 84
e 45 87
e 45 96
e 45 99
e 45 100
e 46 56
e 46 68
e 46 69
e 46 73
e 46 74
e 46 81
e 46 85
e 46 95
e 46 97
e 47 48
e 47 49
e 47 51
e 47 59
e 47 61
e 47 66
e 47 68
e 47 69
e 47 72
e 47 73
e 47 80
e 47 82
e 47 83
e 47 86
e 47 90
e 47 98
e 48 53
e 48 56
e 48 67
e 48 70
e 48 85
e 48 87
e 48 96
e 48 100
e 49 50
e 49 62
e 49 74
e 49 81
e 49 88
e 49 89
e 49 90
e 49 93
e 50 62
e 50 64
e 50 66
e 50 67
e 50 72
e 50 78
e 50 92
e 50 98
e 50 99
e 51 53
e 51 64
e 51 66
e 51 69
e 51 70
e 51 71
e 51 79
e 51 82
e 51 84
e 51 93
e 51 99
e 52 55
e 52 56
e 52 58
e 52 61
e 52 70
e 52 76
e 52 82
e 52 84
e 52 91
e 52 92
e 52 100
e 53 55
e 53 58
e 53 59
e 53 60
e 53 64
e 53 66
e 53 76
e 53 87
e 53 88
e 53 89
e 53 92
e 53 95
e 53 97
e 54 62
e 54 72
e 54 75
e 54 81
e 54 90
e 54 92
e 54 97
e 55 56
e 55 62
e 55 67
e 55 72
e 55 74
e 55 78
e 55 80
e 55 92
e 55 93
e 55 95
e 56 57
e 56 58
e 56 62
e 56 74
e 56 85
e 56 89
e 56 92
e 56 95
e 56 97
e 57 79
e 57 89
e 57 92
e 57 97
e 58 62
e 58 63
e 58 66
e 58 71
e 58 74
e 58 75
e 58 84
e 59 60
e 59 65
e 59 70
e 59 75
e 59 78
e 59 84
e 59 85
e 59 91
e 59 92
e 59 93
e 60 69
e 60 70
e 60 73
e 60 79
e 60 88
e 60 89
e 60 90
e 60 92
e 60 96
e 60 100
e 61 88
e 61 92
e 61 94
e 61 96
e 61 97
e 61 98
e 62 64
e 62 66
e 62 71
e 62 76
e 62 84
e 62 88
e 62 89
e 62 90
e 62 91
e 62 95
e 62 96
e 63 65
e 63 69
e 63 74
e 63 76
e 63 84
e 63 85
e 63 88
e 63 92
e 63 100
e 64 68
e 64 69
e 64 72
e 64 73
e 64 84
e 64 86
e 64 87
e 64 88
e 64 91
e 64 92
e 64 98
e 65 71
e 65 72
e 65 76
e 65 85
e 65 88
e 65 89
e 66 67
e 66 69
e 66 70
e 66 76
e 66 78
e 66 81
e 66 85
e 66 94
e 67 68
e 67 73
e 67 74
e 67 83
e 67 90
e 67 93
e 68 69
e 68 78
e 68 84
e 68 87
e 68 90
e 69 72
e 69 75
e 69 82
e 69 83
e 69 85
e 69 86
e 69 87
e 69 88
e 69 94
e 69 96
e 69 99
e 69 100
e 70 71
e 70 72
e 70 76
e 70 77
e 70 78
e 70 90
e 70 92
e 70 93
e 70 97
e 71 72
e 71 82
e 71 83
e 71 89
e 71 92
e 71 94
e 71 95
e 71 97
e 72 91
e 72 98
e 73 74
e 73 85
e 73 91
e 73 92
e 73 93
e 73 94
e 73 95
e 74 76
e 74 79
e 74 83
e 74 88
e 74 92
e 74 95
e 74 97
e 75 79
e 75 80
e 75 84
e 75 93
e 75 94
e 75 95
e 75 99
e 76 80
e 76 83
e 76 87
e 76 100
e 77 80
e 77 84
e 77 87
e 77 95
e 77 98
e 78 86
e 78 89
e 78 94
e 79 83
e 79 84
e 79 88
e 79 90
e 79 100
e 80 81
e 80 82
e 80 85
e 80 92
e 81 91
e 81 96
e 81 98
e 82 83
e 82 85
e 82 93
e 82 99
e 83 87
e 83 89
e 84 89
e 84 93
e 84 97
e 85 86
e 85 92
e 85 95
e 85 98
e 86 91
e 86 93
e 87 89
e 88 90
e 88 97
e 88 100
e 89 92
e 89 95
e 89 98
e 90 96
e 91 95
e 93 98
e 93 100
e 95 98
e 96 97
e 96 98
e 96 99
e 97 99